75
[7,8,9,10,11,12,13,14,15,16,17,18,19,20,21,22,23,24,25,26,27,28,29,30,31,32,33,34,35,36,37,38,39,40,41,42,43,44,45,46,47,48,49,50,51,52]
[14,13,18,21,11,21,19,16,14,18,14,11,11,12,20,17,23,20,15,20,12,19,18,15,23,12,12,17,15,13,15,16,10,7,19,13,17,20,17,14,20,22,21,21,16,18]
